10J3M/DAT/10J3MUNX-7.dat
10 3
23.025 4.7984
22.8758 4.7829
48.0008 6.9283
43.5118 6.5963
18.6652 4.3203
18.7737 4.3329
8.4731 2.9109
34.8803 5.906
38.9211 6.2387
7.9896 2.8266
49.6413